GLPSOL--GLPK LP/MIP Solver 5.0
Parameter(s) specified in the command line:
 --lp ../modeles/20_49.lp --log 20_49.log
Reading problem data from '../modeles/20_49.lp'...
1061 rows, 2000 columns, 6960 non-zeros
980 integer variables, all of which are binary
3087 lines were read
GLPK Integer Optimizer 5.0
1061 rows, 2000 columns, 6960 non-zeros
980 integer variables, all of which are binary
Preprocessing...
1000 constraint coefficient(s) were reduced
1061 rows, 1980 columns, 6940 non-zeros
980 integer variables, all of which are binary
Scaling...
 A: min|aij| =  1.666e-03  max|aij| =  4.000e+00  ratio =  2.401e+03
GM: min|aij| =  1.429e-01  max|aij| =  7.000e+00  ratio =  4.900e+01
EQ: min|aij| =  2.041e-02  max|aij| =  1.000e+00  ratio =  4.900e+01
2N: min|aij| =  1.562e-02  max|aij| =  1.754e+00  ratio =  1.122e+02
Constructing initial basis...
Size of triangular part is 1061
Solving LP relaxation...
GLPK Simplex Optimizer 5.0
1061 rows, 1980 columns, 6940 non-zeros
      0: obj =   4.000000000e+01 inf =   9.950e+01 (41)
    179: obj =   4.835416667e-01 inf =   0.000e+00 (0)
*   480: obj =  -4.422619048e+00 inf =   2.744e-15 (0) 1
OPTIMAL LP SOLUTION FOUND
Integer optimization begins...
Long-step dual simplex will be used
+   480: mip =     not found yet >=              -inf        (1; 0)
+   516: >>>>>  -4.422619048e+00 >=  -4.422619048e+00   0.0% (34; 0)
+   516: mip =  -4.422619048e+00 >=     tree is empty   0.0% (0; 67)
INTEGER OPTIMAL SOLUTION FOUND
Time used:   0.1 secs
Memory used: 3.0 Mb (3103094 bytes)
